graph_generation/data/sat/tcsp/hexagonal_lattice_N_8_task_random.txt
160 187 1 160 4
1 2 5
1 18 12
2 3 12
3 4 19
3 20 11
5 6 2
5 22 18
7 8 18
8 9 12
9 10 14
9 26 10
10 11 6
11 12 10
11 28 18
12 13 14
13 14 7
13 30 1
15 32 11
16 17 3
17 34 18
18 19 6
19 37 15
20 21 14
21 22 14
21 39 5
22 23 12
23 24 19
23 41 2
24 25 3
25 26 2
25 43 12
26 27 1
27 28 10
27 45 10
28 29 7
29 30 13
29 47 10
30 31 17
31 32 16
31 49 13
32 33 2
33 34 2
33 51 7
34 35 17
35 53 17
36 37 6
36 54 10
37 38 18
38 39 3
38 56 12
39 40 8
40 41 13
40 58 5
41 42 3
42 43 10
42 60 3
43 44 14
44 45 7
45 46 11
46 47 1
46 64 11
47 48 14
48 49 1
49 50 16
50 51 3
50 68 8
51 52 18
52 53 18
52 70 11
54 55 14
56 57 3
57 58 12
57 75 11
58 59 13
59 60 14
60 61 1
61 79 8
62 63 9
63 64 14
63 81 6
64 65 8
65 66 16
65 83 2
66 67 7
67 68 2
67 85 4
68 69 14
69 87 19
70 71 8
71 89 6
72 73 14
73 74 11
74 75 5
74 92 12
75 76 1
76 77 5
76 94 12
77 78 9
78 96 8
79 80 18
80 81 12
80 98 1
81 82 17
82 83 16
82 100 2
84 85 15
84 102 3
85 86 6
86 104 3
87 88 19
88 89 15
88 106 16
90 91 4
91 109 11
92 93 19
93 94 17
93 111 6
94 95 12
95 96 5
96 97 16
97 98 1
97 115 12
99 117 3
100 101 13
101 119 13
102 103 17
103 121 14
104 105 18
105 106 16
107 125 5
108 126 2
109 110 12
110 111 2
110 128 18
112 113 9
112 130 13
113 114 15
114 115 17
114 132 11
115 116 1
116 117 17
116 134 19
117 118 12
118 119 17
119 120 10
120 121 12
120 138 7
121 122 4
122 123 9
123 124 11
124 125 12
126 127 18
127 128 17
127 144 3
128 129 8
129 130 15
129 146 9
130 131 14
131 148 7
132 133 6
133 134 9
134 135 11
135 136 16
137 138 19
137 154 15
138 139 7
139 156 8
140 141 6
141 142 19
141 158 2
142 143 5
143 160 18
144 145 8
145 146 2
146 147 7
148 149 2
149 150 2
150 151 1
151 152 4
152 153 18
153 154 12
154 155 16
155 156 9
156 157 3
157 158 3
158 159 9
159 160 17
6 59
14 64
25 74
46 60
